
Gurobi 13.0.0 (linux64) logging started Thu Jan 15 08:53:17 2026

Set parameter LogFile to value "../experiments/network-n_50_s_1_rp_0-app_set-id_48_21_apps/submip_40_epr1_model_gurobi.log"
Set parameter TimeLimit to value 7.8683513413999754e+02
Gurobi Optimizer version 13.0.0 build v13.0.0rc1 (linux64 - "Ubuntu 24.04.3 LTS")

CPU model: Intel(R) Core(TM) Ultra 7 165H, instruction set [SSE2|AVX|AVX2]
Thread count: 22 physical cores, 22 logical processors, using up to 22 threads

Non-default parameters:
TimeLimit  7.8683513413999754e+02
LogToConsole  0

Academic license 2539022 - for non-commercial use only - registered to al___@studenti.unimi.it
Optimize a model with 47303 rows, 6800 columns and 104278 nonzeros (Min)
Model fingerprint: 0x3d58a751
Model has 6800 linear objective coefficients
Model has 164 quadratic constraints
Variable types: 0 continuous, 6800 integer (6800 binary)
Coefficient statistics:
  Matrix range     [1e+00, 9e+02]
  QMatrix range    [5e+01, 2e+02]
  Objective range  [1e+01, 2e+02]
  Bounds range     [1e+00, 1e+00]
  RHS range        [1e+00, 1e+09]
  QRHS range       [1e+02, 6e+02]
Presolve removed 46369 rows and 5418 columns
Presolve time: 0.18s
Presolved: 14419 rows, 14711 columns, 92250 nonzeros
Variable types: 0 continuous, 14711 integer (14711 binary)

Root relaxation: objective 4.589759e+03, 1998 iterations, 0.18 seconds (0.36 work units)

    Nodes    |    Current Node    |     Objective Bounds      |     Work
 Expl Unexpl |  Obj  Depth IntInf | Incumbent    BestBd   Gap | It/Node Time

     0     0 4589.75859    0  316          - 4589.75859      -     -    0s
     0     0 5153.63819    0  274          - 5153.63819      -     -    1s
     0     0 5384.64177    0  284          - 5384.64177      -     -    2s
     0     0 5433.93561    0  281          - 5433.93561      -     -    2s
     0     0 5436.89078    0  301          - 5436.89078      -     -    2s
     0     0 5629.97322    0  317          - 5629.97322      -     -    3s
     0     0 5728.75329    0  303          - 5728.75329      -     -    4s
     0     0 5785.65223    0  337          - 5785.65223      -     -    5s
     0     0 5825.07366    0  355          - 5825.07366      -     -    5s
     0     0 5828.82888    0  365          - 5828.82888      -     -    5s
     0     0 6071.77611    0  349          - 6071.77611      -     -    6s
     0     0 6071.95613    0  336          - 6071.95613      -     -    6s
     0     0 6071.95613    0  335          - 6071.95613      -     -    6s
     0     2 6072.08690    0  323          - 6072.08690      -     -    8s

Cutting planes:
  Gomory: 3
  Lift-and-project: 1
  Cover: 51
  Clique: 41
  MIR: 52
  Knapsack: 11
  StrongCG: 31
  GUB cover: 6
  Zero half: 4
  RLT: 138
  Relax-and-lift: 9
  BQP: 9

Explored 31 nodes (28721 simplex iterations) in 9.45 seconds (16.08 work units)
Thread count was 22 (of 22 available processors)

Solution count 0

Model is infeasible
Best objective -, best bound -, gap -

User-callback calls 1820, time in user-callback 0.00 sec
